
Gurobi 9.0.3 (win64, Java) logging started Sat Feb 27 20:23:07 2021


--------------------------------------------
Warning: your license will expire in 5 days
--------------------------------------------

Academic license - for non-commercial use only

Gurobi 9.0.3 (win64, Java) logging started Sat Feb 27 21:01:42 2021


--------------------------------------------
Warning: your license will expire in 5 days
--------------------------------------------

Academic license - for non-commercial use only

Gurobi 9.0.3 (win64, Java) logging started Sun Feb 28 07:38:21 2021


--------------------------------------------
Warning: your license will expire in 4 days
--------------------------------------------

Academic license - for non-commercial use only

Gurobi 9.0.3 (win64, Java) logging started Mon Mar  1 01:49:41 2021


--------------------------------------------
Warning: your license will expire in 3 days
--------------------------------------------

Academic license - for non-commercial use only
